0 73 
1 77 
2 78 
3 79 
4 78 
5 77 
6 76 
7 76 
8 76 
9 75 
10 74 
11 73 
12 73 
13 72 
14 71 
15 69 
16 67 
17 67 
18 67 
19 67 
20 68 
21 70 
22 69 
23 68 
24 66 
25 64 
26 61 
27 61 
28 62 
29 60 
30 59 
31 61 
32 60 
33 56 
34 51 
35 51 
36 52 
37 51 
38 49 
39 48 
40 47 
41 46 
42 46 
43 45 
44 43 
45 44 
46 43 
47 43 
48 42 
49 41 
50 41 
51 41 
52 40 
53 38 
54 40 
55 37 
56 35 
57 34 
58 32 
59 29 
60 29 
61 28 
62 28 
63 27 
64 25 
65 22 
66 23 
67 21 
68 21 
69 20 
70 19 
71 16 
72 12 
73 10 
74 11 
75 10 
76 8 
77 7 
78 5 
79 4 
80 7 
81 6 
82 6 
83 5 
84 6 
85 7 
86 6 
87 5 
88 5 
89 3 
90 2 
91 1 
92 0 
93 0 

